% Auto-generated by scripts/generate_dzn.py
% problem_type   = regex
% instance       = regex_5
% source_json    = instances_json/1_medium_blowup/regex_5.json
% blowup         = 2.35
% representation = NFA

mode = 1;

var_count = 19;
n_constraints = 2;
Q = 12;
S = 2;
q0 = [1, 1];
F = [{8}, {12}];
weights = [6, 3, 9, 4, 5, 6, 6, 10, 7, 2, 8, 4, 8, 7, 6, 4, 8, 8, 1];
d_dfa = array3d(1..2, 1..12, 1..2, [
  % k = 1
    0, 0,
    0, 0,
    0, 0,
    0, 0,
    0, 0,
    0, 0,
    0, 0,
    0, 0,
    0, 0,
    0, 0,
    0, 0,
    0, 0,

  % k = 2
    0, 0,
    0, 0,
    0, 0,
    0, 0,
    0, 0,
    0, 0,
    0, 0,
    0, 0,
    0, 0,
    0, 0,
    0, 0,
    0, 0
]);
d_nfa = array3d(1..2, 1..12, 1..2, [
  % k = 1
    {1, 2}, {1},
    {}, {3},
    {4}, {4},
    {5}, {5},
    {6}, {6},
    {7}, {7},
    {8}, {8},
    {}, {},
    {}, {},
    {}, {},
    {}, {},
    {}, {},

  % k = 2
    {1}, {2},
    {2}, {3},
    {3}, {4},
    {4}, {5},
    {5}, {6},
    {6}, {7},
    {7}, {8},
    {8}, {9},
    {9}, {10},
    {10}, {11},
    {11}, {12},
    {12}, {}
]);
